p cnf 846 2484
c inputs: 1 2 3 4 5 6 7 8 9 10 11 12 13 14 15 16 17 18
c variables for gates: 19 ... 828
c outputs: 829 830 831 832 833 834 835 836 837 838 839 840 841 842 843 844 845 846
c random input: -1 2 3 -4 -5 -6 7 8 9 10 11 12 -13 -14 -15 16 17 18
19 -1 -10 0
-19 1 0
-19 10 0
20 -2 -10 0
-20 2 0
-20 10 0
21 -3 -10 0
-21 3 0
-21 10 0
22 -4 -10 0
-22 4 0
-22 10 0
23 -5 -10 0
-23 5 0
-23 10 0
24 -6 -10 0
-24 6 0
-24 10 0
25 -7 -10 0
-25 7 0
-25 10 0
26 -8 -10 0
-26 8 0
-26 10 0
27 -9 -10 0
-27 9 0
-27 10 0
28 -1 -11 0
-28 1 0
-28 11 0
29 -2 -11 0
-29 2 0
-29 11 0
30 -3 -11 0
-30 3 0
-30 11 0
31 -4 -11 0
-31 4 0
-31 11 0
32 -5 -11 0
-32 5 0
-32 11 0
33 -6 -11 0
-33 6 0
-33 11 0
34 -7 -11 0
-34 7 0
-34 11 0
35 -8 -11 0
-35 8 0
-35 11 0
36 -9 -11 0
-36 9 0
-36 11 0
37 -1 -12 0
-37 1 0
-37 12 0
38 -2 -12 0
-38 2 0
-38 12 0
39 -3 -12 0
-39 3 0
-39 12 0
40 -4 -12 0
-40 4 0
-40 12 0
41 -5 -12 0
-41 5 0
-41 12 0
42 -6 -12 0
-42 6 0
-42 12 0
43 -7 -12 0
-43 7 0
-43 12 0
44 -8 -12 0
-44 8 0
-44 12 0
45 -9 -12 0
-45 9 0
-45 12 0
46 -1 -13 0
-46 1 0
-46 13 0
47 -2 -13 0
-47 2 0
-47 13 0
48 -3 -13 0
-48 3 0
-48 13 0
49 -4 -13 0
-49 4 0
-49 13 0
50 -5 -13 0
-50 5 0
-50 13 0
51 -6 -13 0
-51 6 0
-51 13 0
52 -7 -13 0
-52 7 0
-52 13 0
53 -8 -13 0
-53 8 0
-53 13 0
54 -9 -13 0
-54 9 0
-54 13 0
55 -1 -14 0
-55 1 0
-55 14 0
56 -2 -14 0
-56 2 0
-56 14 0
57 -3 -14 0
-57 3 0
-57 14 0
58 -4 -14 0
-58 4 0
-58 14 0
59 -5 -14 0
-59 5 0
-59 14 0
60 -6 -14 0
-60 6 0
-60 14 0
61 -7 -14 0
-61 7 0
-61 14 0
62 -8 -14 0
-62 8 0
-62 14 0
63 -9 -14 0
-63 9 0
-63 14 0
64 -1 -15 0
-64 1 0
-64 15 0
65 -2 -15 0
-65 2 0
-65 15 0
66 -3 -15 0
-66 3 0
-66 15 0
67 -4 -15 0
-67 4 0
-67 15 0
68 -5 -15 0
-68 5 0
-68 15 0
69 -6 -15 0
-69 6 0
-69 15 0
70 -7 -15 0
-70 7 0
-70 15 0
71 -8 -15 0
-71 8 0
-71 15 0
72 -9 -15 0
-72 9 0
-72 15 0
73 -1 -16 0
-73 1 0
-73 16 0
74 -2 -16 0
-74 2 0
-74 16 0
75 -3 -16 0
-75 3 0
-75 16 0
76 -4 -16 0
-76 4 0
-76 16 0
77 -5 -16 0
-77 5 0
-77 16 0
78 -6 -16 0
-78 6 0
-78 16 0
79 -7 -16 0
-79 7 0
-79 16 0
80 -8 -16 0
-80 8 0
-80 16 0
81 -9 -16 0
-81 9 0
-81 16 0
82 -1 -17 0
-82 1 0
-82 17 0
83 -2 -17 0
-83 2 0
-83 17 0
84 -3 -17 0
-84 3 0
-84 17 0
85 -4 -17 0
-85 4 0
-85 17 0
86 -5 -17 0
-86 5 0
-86 17 0
87 -6 -17 0
-87 6 0
-87 17 0
88 -7 -17 0
-88 7 0
-88 17 0
89 -8 -17 0
-89 8 0
-89 17 0
90 -9 -17 0
-90 9 0
-90 17 0
91 -1 -18 0
-91 1 0
-91 18 0
92 -2 -18 0
-92 2 0
-92 18 0
93 -3 -18 0
-93 3 0
-93 18 0
94 -4 -18 0
-94 4 0
-94 18 0
95 -5 -18 0
-95 5 0
-95 18 0
96 -6 -18 0
-96 6 0
-96 18 0
97 -7 -18 0
-97 7 0
-97 18 0
98 -8 -18 0
-98 8 0
-98 18 0
99 -9 -18 0
-99 9 0
-99 18 0
100 -65 -73 0
-100 65 0
-100 73 0
101 -73 65 0
-101 73 0
-101 -65 0
102 -65 73 0
-102 65 0
-102 -73 0
103 101 102 0
-103 -101 0
-103 -102 0
104 -82 -100 0
-104 82 0
-104 100 0
105 -74 -100 0
-105 74 0
-105 100 0
106 -74 -82 0
-106 74 0
-106 82 0
107 106 105 0
-107 -106 0
-107 -105 0
108 104 -107 0
-108 -104 0
-108 107 0
109 -82 74 0
-109 82 0
-109 -74 0
110 -74 82 0
-110 74 0
-110 -82 0
111 109 110 0
-111 -109 0
-111 -110 0
112 -100 -111 0
-112 100 0
-112 111 0
113 100 111 0
-113 -100 0
-113 -111 0
114 113 112 0
-114 -113 0
-114 -112 0
115 -66 114 0
-115 66 0
-115 -114 0
116 66 114 0
-116 -66 0
-116 -114 0
117 -66 -114 0
-117 66 0
-117 114 0
118 116 117 0
-118 -116 0
-118 -117 0
119 108 -115 0
-119 -108 0
-119 115 0
120 -91 -115 0
-120 91 0
-120 115 0
121 -91 108 0
-121 91 0
-121 -108 0
122 121 120 0
-122 -121 0
-122 -120 0
123 119 -122 0
-123 -119 0
-123 122 0
124 91 108 0
-124 -91 0
-124 -108 0
125 -91 -108 0
-125 91 0
-125 108 0
126 124 125 0
-126 -124 0
-126 -125 0
127 -115 -126 0
-127 115 0
-127 126 0
128 115 126 0
-128 -115 0
-128 -126 0
129 128 127 0
-129 -128 0
-129 -127 0
130 -83 129 0
-130 83 0
-130 -129 0
131 -75 129 0
-131 75 0
-131 -129 0
132 -83 -75 0
-132 83 0
-132 75 0
133 132 131 0
-133 -132 0
-133 -131 0
134 130 -133 0
-134 -130 0
-134 133 0
135 -83 75 0
-135 83 0
-135 -75 0
136 -75 83 0
-136 75 0
-136 -83 0
137 136 135 0
-137 -136 0
-137 -135 0
138 -137 129 0
-138 137 0
-138 -129 0
139 137 -129 0
-139 -137 0
-139 129 0
140 138 139 0
-140 -138 0
-140 -139 0
141 -67 140 0
-141 67 0
-141 -140 0
142 67 140 0
-142 -67 0
-142 -140 0
143 -67 -140 0
-143 67 0
-143 140 0
144 142 143 0
-144 -142 0
-144 -143 0
145 134 -141 0
-145 -134 0
-145 141 0
146 123 -141 0
-146 -123 0
-146 141 0
147 123 134 0
-147 -123 0
-147 -134 0
148 146 147 0
-148 -146 0
-148 -147 0
149 -148 145 0
-149 148 0
-149 -145 0
150 -123 134 0
-150 123 0
-150 -134 0
151 123 -134 0
-151 -123 0
-151 134 0
152 150 151 0
-152 -150 0
-152 -151 0
153 -152 -141 0
-153 152 0
-153 141 0
154 152 141 0
-154 -152 0
-154 -141 0
155 153 154 0
-155 -153 0
-155 -154 0
156 -92 155 0
-156 92 0
-156 -155 0
157 -84 155 0
-157 84 0
-157 -155 0
158 -92 -84 0
-158 92 0
-158 84 0
159 158 157 0
-159 -158 0
-159 -157 0
160 156 -159 0
-160 -156 0
-160 159 0
161 -92 84 0
-161 92 0
-161 -84 0
162 -84 92 0
-162 84 0
-162 -92 0
163 162 161 0
-163 -162 0
-163 -161 0
164 -163 155 0
-164 163 0
-164 -155 0
165 163 -155 0
-165 -163 0
-165 155 0
166 165 164 0
-166 -165 0
-166 -164 0
167 -76 166 0
-167 76 0
-167 -166 0
168 76 166 0
-168 -76 0
-168 -166 0
169 -76 -166 0
-169 76 0
-169 166 0
170 169 168 0
-170 -169 0
-170 -168 0
171 160 -167 0
-171 -160 0
-171 167 0
172 149 -167 0
-172 -149 0
-172 167 0
173 160 149 0
-173 -160 0
-173 -149 0
174 173 172 0
-174 -173 0
-174 -172 0
175 171 -174 0
-175 -171 0
-175 174 0
176 160 -149 0
-176 -160 0
-176 149 0
177 -160 149 0
-177 160 0
-177 -149 0
178 177 176 0
-178 -177 0
-178 -176 0
179 -178 -167 0
-179 178 0
-179 167 0
180 178 167 0
-180 -178 0
-180 -167 0
181 179 180 0
-181 -179 0
-181 -180 0
182 -93 181 0
-182 93 0
-182 -181 0
183 -85 181 0
-183 85 0
-183 -181 0
184 -85 -93 0
-184 85 0
-184 93 0
185 184 183 0
-185 -184 0
-185 -183 0
186 182 -185 0
-186 -182 0
-186 185 0
187 -93 85 0
-187 93 0
-187 -85 0
188 -85 93 0
-188 85 0
-188 -93 0
189 187 188 0
-189 -187 0
-189 -188 0
190 -189 181 0
-190 189 0
-190 -181 0
191 189 -181 0
-191 -189 0
-191 181 0
192 190 191 0
-192 -190 0
-192 -191 0
193 186 175 0
-193 -186 0
-193 -175 0
194 -94 186 0
-194 94 0
-194 -186 0
195 -94 175 0
-195 94 0
-195 -175 0
196 194 195 0
-196 -194 0
-196 -195 0
197 -196 193 0
-197 196 0
-197 -193 0
198 94 175 0
-198 -94 0
-198 -175 0
199 -94 -175 0
-199 94 0
-199 175 0
200 199 198 0
-200 -199 0
-200 -198 0
201 186 -200 0
-201 -186 0
-201 200 0
202 -186 200 0
-202 186 0
-202 -200 0
203 202 201 0
-203 -202 0
-203 -201 0
204 -47 -55 0
-204 47 0
-204 55 0
205 -55 47 0
-205 55 0
-205 -47 0
206 -47 55 0
-206 47 0
-206 -55 0
207 205 206 0
-207 -205 0
-207 -206 0
208 -64 -204 0
-208 64 0
-208 204 0
209 -56 -204 0
-209 56 0
-209 204 0
210 -56 -64 0
-210 56 0
-210 64 0
211 210 209 0
-211 -210 0
-211 -209 0
212 208 -211 0
-212 -208 0
-212 211 0
213 -64 56 0
-213 64 0
-213 -56 0
214 -56 64 0
-214 56 0
-214 -64 0
215 213 214 0
-215 -213 0
-215 -214 0
216 -204 -215 0
-216 204 0
-216 215 0
217 204 215 0
-217 -204 0
-217 -215 0
218 217 216 0
-218 -217 0
-218 -216 0
219 -48 218 0
-219 48 0
-219 -218 0
220 48 218 0
-220 -48 0
-220 -218 0
221 -48 -218 0
-221 48 0
-221 218 0
222 220 221 0
-222 -220 0
-222 -221 0
223 212 -219 0
-223 -212 0
-223 219 0
224 103 -219 0
-224 -103 0
-224 219 0
225 103 212 0
-225 -103 0
-225 -212 0
226 225 224 0
-226 -225 0
-226 -224 0
227 -226 223 0
-227 226 0
-227 -223 0
228 -103 212 0
-228 103 0
-228 -212 0
229 103 -212 0
-229 -103 0
-229 212 0
230 229 228 0
-230 -229 0
-230 -228 0
231 -230 -219 0
-231 230 0
-231 219 0
232 230 219 0
-232 -230 0
-232 -219 0
233 231 232 0
-233 -231 0
-233 -232 0
234 -57 233 0
-234 57 0
-234 -233 0
235 -49 233 0
-235 49 0
-235 -233 0
236 -49 -57 0
-236 49 0
-236 57 0
237 236 235 0
-237 -236 0
-237 -235 0
238 234 -237 0
-238 -234 0
-238 237 0
239 -57 49 0
-239 57 0
-239 -49 0
240 -49 57 0
-240 49 0
-240 -57 0
241 239 240 0
-241 -239 0
-241 -240 0
242 -241 233 0
-242 241 0
-242 -233 0
243 241 -233 0
-243 -241 0
-243 233 0
244 243 242 0
-244 -243 0
-244 -242 0
245 227 238 0
-245 -227 0
-245 -238 0
246 118 238 0
-246 -118 0
-246 -238 0
247 118 227 0
-247 -118 0
-247 -227 0
248 246 247 0
-248 -246 0
-248 -247 0
249 245 -248 0
-249 -245 0
-249 248 0
250 -118 227 0
-250 118 0
-250 -227 0
251 118 -227 0
-251 -118 0
-251 227 0
252 250 251 0
-252 -250 0
-252 -251 0
253 -252 238 0
-253 252 0
-253 -238 0
254 252 -238 0
-254 -252 0
-254 238 0
255 253 254 0
-255 -253 0
-255 -254 0
256 -58 255 0
-256 58 0
-256 -255 0
257 -50 255 0
-257 50 0
-257 -255 0
258 -58 -50 0
-258 58 0
-258 50 0
259 258 257 0
-259 -258 0
-259 -257 0
260 256 -259 0
-260 -256 0
-260 259 0
261 -58 50 0
-261 58 0
-261 -50 0
262 -50 58 0
-262 50 0
-262 -58 0
263 262 261 0
-263 -262 0
-263 -261 0
264 -263 255 0
-264 263 0
-264 -255 0
265 263 -255 0
-265 -263 0
-265 255 0
266 265 264 0
-266 -265 0
-266 -264 0
267 249 260 0
-267 -249 0
-267 -260 0
268 144 260 0
-268 -144 0
-268 -260 0
269 249 144 0
-269 -249 0
-269 -144 0
270 268 269 0
-270 -268 0
-270 -269 0
271 267 -270 0
-271 -267 0
-271 270 0
272 249 -144 0
-272 -249 0
-272 144 0
273 -249 144 0
-273 249 0
-273 -144 0
274 272 273 0
-274 -272 0
-274 -273 0
275 -274 260 0
-275 274 0
-275 -260 0
276 274 -260 0
-276 -274 0
-276 260 0
277 275 276 0
-277 -275 0
-277 -276 0
278 -59 277 0
-278 59 0
-278 -277 0
279 -51 277 0
-279 51 0
-279 -277 0
280 -51 -59 0
-280 51 0
-280 59 0
281 280 279 0
-281 -280 0
-281 -279 0
282 278 -281 0
-282 -278 0
-282 281 0
283 -59 51 0
-283 59 0
-283 -51 0
284 -51 59 0
-284 51 0
-284 -59 0
285 284 283 0
-285 -284 0
-285 -283 0
286 -285 277 0
-286 285 0
-286 -277 0
287 285 -277 0
-287 -285 0
-287 277 0
288 286 287 0
-288 -286 0
-288 -287 0
289 271 282 0
-289 -271 0
-289 -282 0
290 170 282 0
-290 -170 0
-290 -282 0
291 271 170 0
-291 -271 0
-291 -170 0
292 290 291 0
-292 -290 0
-292 -291 0
293 -292 289 0
-293 292 0
-293 -289 0
294 271 -170 0
-294 -271 0
-294 170 0
295 -271 170 0
-295 271 0
-295 -170 0
296 295 294 0
-296 -295 0
-296 -294 0
297 282 -296 0
-297 -282 0
-297 296 0
298 -282 296 0
-298 282 0
-298 -296 0
299 297 298 0
-299 -297 0
-299 -298 0
300 -68 299 0
-300 68 0
-300 -299 0
301 -60 299 0
-301 60 0
-301 -299 0
302 -60 -68 0
-302 60 0
-302 68 0
303 302 301 0
-303 -302 0
-303 -301 0
304 300 -303 0
-304 -300 0
-304 303 0
305 -68 60 0
-305 68 0
-305 -60 0
306 -60 68 0
-306 60 0
-306 -68 0
307 306 305 0
-307 -306 0
-307 -305 0
308 -307 299 0
-308 307 0
-308 -299 0
309 307 -299 0
-309 -307 0
-309 299 0
310 309 308 0
-310 -309 0
-310 -308 0
311 304 293 0
-311 -304 0
-311 -293 0
312 192 304 0
-312 -192 0
-312 -304 0
313 192 293 0
-313 -192 0
-313 -293 0
314 313 312 0
-314 -313 0
-314 -312 0
315 -314 311 0
-315 314 0
-315 -311 0
316 -192 293 0
-316 192 0
-316 -293 0
317 192 -293 0
-317 -192 0
-317 293 0
318 316 317 0
-318 -316 0
-318 -317 0
319 -318 304 0
-319 318 0
-319 -304 0
320 318 -304 0
-320 -318 0
-320 304 0
321 319 320 0
-321 -319 0
-321 -320 0
322 -77 321 0
-322 77 0
-322 -321 0
323 -69 321 0
-323 69 0
-323 -321 0
324 -69 -77 0
-324 69 0
-324 77 0
325 324 323 0
-325 -324 0
-325 -323 0
326 322 -325 0
-326 -322 0
-326 325 0
327 -77 69 0
-327 77 0
-327 -69 0
328 -69 77 0
-328 69 0
-328 -77 0
329 328 327 0
-329 -328 0
-329 -327 0
330 -329 321 0
-330 329 0
-330 -321 0
331 329 -321 0
-331 -329 0
-331 321 0
332 330 331 0
-332 -330 0
-332 -331 0
333 326 315 0
-333 -326 0
-333 -315 0
334 326 203 0
-334 -326 0
-334 -203 0
335 203 315 0
-335 -203 0
-335 -315 0
336 335 334 0
-336 -335 0
-336 -334 0
337 -336 333 0
-337 336 0
-337 -333 0
338 -203 315 0
-338 203 0
-338 -315 0
339 203 -315 0
-339 -203 0
-339 315 0
340 338 339 0
-340 -338 0
-340 -339 0
341 326 -340 0
-341 -326 0
-341 340 0
342 -326 340 0
-342 326 0
-342 -340 0
343 341 342 0
-343 -341 0
-343 -342 0
344 -86 343 0
-344 86 0
-344 -343 0
345 -78 343 0
-345 78 0
-345 -343 0
346 -78 -86 0
-346 78 0
-346 86 0
347 346 345 0
-347 -346 0
-347 -345 0
348 344 -347 0
-348 -344 0
-348 347 0
349 -86 78 0
-349 86 0
-349 -78 0
350 -78 86 0
-350 78 0
-350 -86 0
351 350 349 0
-351 -350 0
-351 -349 0
352 -351 343 0
-352 351 0
-352 -343 0
353 351 -343 0
-353 -351 0
-353 343 0
354 353 352 0
-354 -353 0
-354 -352 0
355 337 348 0
-355 -337 0
-355 -348 0
356 197 348 0
-356 -197 0
-356 -348 0
357 337 197 0
-357 -337 0
-357 -197 0
358 356 357 0
-358 -356 0
-358 -357 0
359 -358 355 0
-359 358 0
-359 -355 0
360 337 -197 0
-360 -337 0
-360 197 0
361 -337 197 0
-361 337 0
-361 -197 0
362 360 361 0
-362 -360 0
-362 -361 0
363 -362 348 0
-363 362 0
-363 -348 0
364 362 -348 0
-364 -362 0
-364 348 0
365 364 363 0
-365 -364 0
-365 -363 0
366 -95 365 0
-366 95 0
-366 -365 0
367 -87 365 0
-367 87 0
-367 -365 0
368 -87 -95 0
-368 87 0
-368 95 0
369 368 367 0
-369 -368 0
-369 -367 0
370 366 -369 0
-370 -366 0
-370 369 0
371 -95 87 0
-371 95 0
-371 -87 0
372 -87 95 0
-372 87 0
-372 -95 0
373 372 371 0
-373 -372 0
-373 -371 0
374 -373 365 0
-374 373 0
-374 -365 0
375 373 -365 0
-375 -373 0
-375 365 0
376 374 375 0
-376 -374 0
-376 -375 0
377 359 370 0
-377 -359 0
-377 -370 0
378 -96 370 0
-378 96 0
-378 -370 0
379 -96 359 0
-379 96 0
-379 -359 0
380 379 378 0
-380 -379 0
-380 -378 0
381 -380 377 0
-381 380 0
-381 -377 0
382 96 359 0
-382 -96 0
-382 -359 0
383 -96 -359 0
-383 96 0
-383 359 0
384 383 382 0
-384 -383 0
-384 -382 0
385 370 -384 0
-385 -370 0
-385 384 0
386 -370 384 0
-386 370 0
-386 -384 0
387 386 385 0
-387 -386 0
-387 -385 0
388 -38 -46 0
-388 38 0
-388 46 0
389 -46 38 0
-389 46 0
-389 -38 0
390 -38 46 0
-390 38 0
-390 -46 0
391 389 390 0
-391 -389 0
-391 -390 0
392 -388 207 0
-392 388 0
-392 -207 0
393 -39 -388 0
-393 39 0
-393 388 0
394 -39 207 0
-394 39 0
-394 -207 0
395 393 394 0
-395 -393 0
-395 -394 0
396 392 -395 0
-396 -392 0
-396 395 0
397 39 207 0
-397 -39 0
-397 -207 0
398 -39 -207 0
-398 39 0
-398 207 0
399 398 397 0
-399 -398 0
-399 -397 0
400 -388 -399 0
-400 388 0
-400 399 0
401 388 399 0
-401 -388 0
-401 -399 0
402 400 401 0
-402 -400 0
-402 -401 0
403 396 222 0
-403 -396 0
-403 -222 0
404 -40 396 0
-404 40 0
-404 -396 0
405 -40 222 0
-405 40 0
-405 -222 0
406 404 405 0
-406 -404 0
-406 -405 0
407 403 -406 0
-407 -403 0
-407 406 0
408 40 222 0
-408 -40 0
-408 -222 0
409 -40 -222 0
-409 40 0
-409 222 0
410 409 408 0
-410 -409 0
-410 -408 0
411 396 -410 0
-411 -396 0
-411 410 0
412 -396 410 0
-412 396 0
-412 -410 0
413 412 411 0
-413 -412 0
-413 -411 0
414 244 407 0
-414 -244 0
-414 -407 0
415 -41 407 0
-415 41 0
-415 -407 0
416 -41 244 0
-416 41 0
-416 -244 0
417 416 415 0
-417 -416 0
-417 -415 0
418 414 -417 0
-418 -414 0
-418 417 0
419 41 244 0
-419 -41 0
-419 -244 0
420 -41 -244 0
-420 41 0
-420 244 0
421 420 419 0
-421 -420 0
-421 -419 0
422 -421 407 0
-422 421 0
-422 -407 0
423 421 -407 0
-423 -421 0
-423 407 0
424 422 423 0
-424 -422 0
-424 -423 0
425 266 418 0
-425 -266 0
-425 -418 0
426 -42 418 0
-426 42 0
-426 -418 0
427 -42 266 0
-427 42 0
-427 -266 0
428 427 426 0
-428 -427 0
-428 -426 0
429 -428 425 0
-429 428 0
-429 -425 0
430 42 266 0
-430 -42 0
-430 -266 0
431 -42 -266 0
-431 42 0
-431 266 0
432 431 430 0
-432 -431 0
-432 -430 0
433 418 -432 0
-433 -418 0
-433 432 0
434 -418 432 0
-434 418 0
-434 -432 0
435 434 433 0
-435 -434 0
-435 -433 0
436 429 288 0
-436 -429 0
-436 -288 0
437 -43 429 0
-437 43 0
-437 -429 0
438 -43 288 0
-438 43 0
-438 -288 0
439 437 438 0
-439 -437 0
-439 -438 0
440 436 -439 0
-440 -436 0
-440 439 0
441 43 288 0
-441 -43 0
-441 -288 0
442 -43 -288 0
-442 43 0
-442 288 0
443 441 442 0
-443 -441 0
-443 -442 0
444 -443 429 0
-444 443 0
-444 -429 0
445 443 -429 0
-445 -443 0
-445 429 0
446 444 445 0
-446 -444 0
-446 -445 0
447 310 440 0
-447 -310 0
-447 -440 0
448 -52 440 0
-448 52 0
-448 -440 0
449 -52 310 0
-449 52 0
-449 -310 0
450 449 448 0
-450 -449 0
-450 -448 0
451 -450 447 0
-451 450 0
-451 -447 0
452 52 310 0
-452 -52 0
-452 -310 0
453 -52 -310 0
-453 52 0
-453 310 0
454 453 452 0
-454 -453 0
-454 -452 0
455 -454 440 0
-455 454 0
-455 -440 0
456 454 -440 0
-456 -454 0
-456 440 0
457 456 455 0
-457 -456 0
-457 -455 0
458 332 451 0
-458 -332 0
-458 -451 0
459 -61 451 0
-459 61 0
-459 -451 0
460 -61 332 0
-460 61 0
-460 -332 0
461 460 459 0
-461 -460 0
-461 -459 0
462 458 -461 0
-462 -458 0
-462 461 0
463 61 332 0
-463 -61 0
-463 -332 0
464 -61 -332 0
-464 61 0
-464 332 0
465 463 464 0
-465 -463 0
-465 -464 0
466 451 -465 0
-466 -451 0
-466 465 0
467 -451 465 0
-467 451 0
-467 -465 0
468 466 467 0
-468 -466 0
-468 -467 0
469 354 462 0
-469 -354 0
-469 -462 0
470 -70 462 0
-470 70 0
-470 -462 0
471 -70 354 0
-471 70 0
-471 -354 0
472 471 470 0
-472 -471 0
-472 -470 0
473 469 -472 0
-473 -469 0
-473 472 0
474 70 354 0
-474 -70 0
-474 -354 0
475 -70 -354 0
-475 70 0
-475 354 0
476 475 474 0
-476 -475 0
-476 -474 0
477 -476 462 0
-477 476 0
-477 -462 0
478 476 -462 0
-478 -476 0
-478 462 0
479 478 477 0
-479 -478 0
-479 -477 0
480 473 376 0
-480 -473 0
-480 -376 0
481 -79 473 0
-481 79 0
-481 -473 0
482 -79 376 0
-482 79 0
-482 -376 0
483 481 482 0
-483 -481 0
-483 -482 0
484 -483 480 0
-484 483 0
-484 -480 0
485 79 376 0
-485 -79 0
-485 -376 0
486 -79 -376 0
-486 79 0
-486 376 0
487 486 485 0
-487 -486 0
-487 -485 0
488 473 -487 0
-488 -473 0
-488 487 0
489 -473 487 0
-489 473 0
-489 -487 0
490 488 489 0
-490 -488 0
-490 -489 0
491 387 484 0
-491 -387 0
-491 -484 0
492 -88 484 0
-492 88 0
-492 -484 0
493 -88 387 0
-493 88 0
-493 -387 0
494 493 492 0
-494 -493 0
-494 -492 0
495 -494 491 0
-495 494 0
-495 -491 0
496 88 387 0
-496 -88 0
-496 -387 0
497 -88 -387 0
-497 88 0
-497 387 0
498 497 496 0
-498 -497 0
-498 -496 0
499 -498 484 0
-499 498 0
-499 -484 0
500 498 -484 0
-500 -498 0
-500 484 0
501 500 499 0
-501 -500 0
-501 -499 0
502 381 495 0
-502 -381 0
-502 -495 0
503 -97 495 0
-503 97 0
-503 -495 0
504 -97 381 0
-504 97 0
-504 -381 0
505 504 503 0
-505 -504 0
-505 -503 0
506 -505 502 0
-506 505 0
-506 -502 0
507 97 381 0
-507 -97 0
-507 -381 0
508 -97 -381 0
-508 97 0
-508 381 0
509 507 508 0
-509 -507 0
-509 -508 0
510 -509 495 0
-510 509 0
-510 -495 0
511 509 -495 0
-511 -509 0
-511 495 0
512 511 510 0
-512 -511 0
-512 -510 0
513 -29 -37 0
-513 29 0
-513 37 0
514 -37 29 0
-514 37 0
-514 -29 0
515 -29 37 0
-515 29 0
-515 -37 0
516 514 515 0
-516 -514 0
-516 -515 0
517 -513 391 0
-517 513 0
-517 -391 0
518 -30 -513 0
-518 30 0
-518 513 0
519 -30 391 0
-519 30 0
-519 -391 0
520 518 519 0
-520 -518 0
-520 -519 0
521 517 -520 0
-521 -517 0
-521 520 0
522 30 391 0
-522 -30 0
-522 -391 0
523 -30 -391 0
-523 30 0
-523 391 0
524 523 522 0
-524 -523 0
-524 -522 0
525 -513 -524 0
-525 513 0
-525 524 0
526 513 524 0
-526 -513 0
-526 -524 0
527 525 526 0
-527 -525 0
-527 -526 0
528 521 402 0
-528 -521 0
-528 -402 0
529 -31 521 0
-529 31 0
-529 -521 0
530 -31 402 0
-530 31 0
-530 -402 0
531 529 530 0
-531 -529 0
-531 -530 0
532 528 -531 0
-532 -528 0
-532 531 0
533 31 402 0
-533 -31 0
-533 -402 0
534 -31 -402 0
-534 31 0
-534 402 0
535 534 533 0
-535 -534 0
-535 -533 0
536 521 -535 0
-536 -521 0
-536 535 0
537 -521 535 0
-537 521 0
-537 -535 0
538 536 537 0
-538 -536 0
-538 -537 0
539 532 413 0
-539 -532 0
-539 -413 0
540 -32 532 0
-540 32 0
-540 -532 0
541 -32 413 0
-541 32 0
-541 -413 0
542 540 541 0
-542 -540 0
-542 -541 0
543 -542 539 0
-543 542 0
-543 -539 0
544 32 413 0
-544 -32 0
-544 -413 0
545 -32 -413 0
-545 32 0
-545 413 0
546 544 545 0
-546 -544 0
-546 -545 0
547 532 -546 0
-547 -532 0
-547 546 0
548 -532 546 0
-548 532 0
-548 -546 0
549 547 548 0
-549 -547 0
-549 -548 0
550 543 424 0
-550 -543 0
-550 -424 0
551 -33 543 0
-551 33 0
-551 -543 0
552 -33 424 0
-552 33 0
-552 -424 0
553 551 552 0
-553 -551 0
-553 -552 0
554 -553 550 0
-554 553 0
-554 -550 0
555 33 424 0
-555 -33 0
-555 -424 0
556 -33 -424 0
-556 33 0
-556 424 0
557 555 556 0
-557 -555 0
-557 -556 0
558 -557 543 0
-558 557 0
-558 -543 0
559 557 -543 0
-559 -557 0
-559 543 0
560 559 558 0
-560 -559 0
-560 -558 0
561 554 435 0
-561 -554 0
-561 -435 0
562 -34 554 0
-562 34 0
-562 -554 0
563 -34 435 0
-563 34 0
-563 -435 0
564 562 563 0
-564 -562 0
-564 -563 0
565 561 -564 0
-565 -561 0
-565 564 0
566 34 435 0
-566 -34 0
-566 -435 0
567 -34 -435 0
-567 34 0
-567 435 0
568 566 567 0
-568 -566 0
-568 -567 0
569 554 -568 0
-569 -554 0
-569 568 0
570 -554 568 0
-570 554 0
-570 -568 0
571 570 569 0
-571 -570 0
-571 -569 0
572 565 446 0
-572 -565 0
-572 -446 0
573 -35 565 0
-573 35 0
-573 -565 0
574 -35 446 0
-574 35 0
-574 -446 0
575 573 574 0
-575 -573 0
-575 -574 0
576 -575 572 0
-576 575 0
-576 -572 0
577 35 446 0
-577 -35 0
-577 -446 0
578 -35 -446 0
-578 35 0
-578 446 0
579 577 578 0
-579 -577 0
-579 -578 0
580 565 -579 0
-580 -565 0
-580 579 0
581 -565 579 0
-581 565 0
-581 -579 0
582 580 581 0
-582 -580 0
-582 -581 0
583 576 457 0
-583 -576 0
-583 -457 0
584 -44 576 0
-584 44 0
-584 -576 0
585 -44 457 0
-585 44 0
-585 -457 0
586 584 585 0
-586 -584 0
-586 -585 0
587 -586 583 0
-587 586 0
-587 -583 0
588 44 457 0
-588 -44 0
-588 -457 0
589 -44 -457 0
-589 44 0
-589 457 0
590 588 589 0
-590 -588 0
-590 -589 0
591 576 -590 0
-591 -576 0
-591 590 0
592 -576 590 0
-592 576 0
-592 -590 0
593 592 591 0
-593 -592 0
-593 -591 0
594 468 587 0
-594 -468 0
-594 -587 0
595 -53 587 0
-595 53 0
-595 -587 0
596 -53 468 0
-596 53 0
-596 -468 0
597 596 595 0
-597 -596 0
-597 -595 0
598 -597 594 0
-598 597 0
-598 -594 0
599 53 468 0
-599 -53 0
-599 -468 0
600 -53 -468 0
-600 53 0
-600 468 0
601 600 599 0
-601 -600 0
-601 -599 0
602 587 -601 0
-602 -587 0
-602 601 0
603 -587 601 0
-603 587 0
-603 -601 0
604 603 602 0
-604 -603 0
-604 -602 0
605 598 479 0
-605 -598 0
-605 -479 0
606 -62 598 0
-606 62 0
-606 -598 0
607 -62 479 0
-607 62 0
-607 -479 0
608 606 607 0
-608 -606 0
-608 -607 0
609 605 -608 0
-609 -605 0
-609 608 0
610 62 479 0
-610 -62 0
-610 -479 0
611 -62 -479 0
-611 62 0
-611 479 0
612 611 610 0
-612 -611 0
-612 -610 0
613 598 -612 0
-613 -598 0
-613 612 0
614 -598 612 0
-614 598 0
-614 -612 0
615 613 614 0
-615 -613 0
-615 -614 0
616 490 609 0
-616 -490 0
-616 -609 0
617 -71 609 0
-617 71 0
-617 -609 0
618 -71 490 0
-618 71 0
-618 -490 0
619 618 617 0
-619 -618 0
-619 -617 0
620 -619 616 0
-620 619 0
-620 -616 0
621 71 490 0
-621 -71 0
-621 -490 0
622 -71 -490 0
-622 71 0
-622 490 0
623 622 621 0
-623 -622 0
-623 -621 0
624 609 -623 0
-624 -609 0
-624 623 0
625 -609 623 0
-625 609 0
-625 -623 0
626 625 624 0
-626 -625 0
-626 -624 0
627 620 501 0
-627 -620 0
-627 -501 0
628 -80 620 0
-628 80 0
-628 -620 0
629 -80 501 0
-629 80 0
-629 -501 0
630 628 629 0
-630 -628 0
-630 -629 0
631 -630 627 0
-631 630 0
-631 -627 0
632 80 501 0
-632 -80 0
-632 -501 0
633 -80 -501 0
-633 80 0
-633 501 0
634 632 633 0
-634 -632 0
-634 -633 0
635 -634 620 0
-635 634 0
-635 -620 0
636 634 -620 0
-636 -634 0
-636 620 0
637 635 636 0
-637 -635 0
-637 -636 0
638 631 512 0
-638 -631 0
-638 -512 0
639 -89 631 0
-639 89 0
-639 -631 0
640 -89 512 0
-640 89 0
-640 -512 0
641 639 640 0
-641 -639 0
-641 -640 0
642 638 -641 0
-642 -638 0
-642 641 0
643 89 512 0
-643 -89 0
-643 -512 0
644 -89 -512 0
-644 89 0
-644 512 0
645 644 643 0
-645 -644 0
-645 -643 0
646 -645 631 0
-646 645 0
-646 -631 0
647 645 -631 0
-647 -645 0
-647 631 0
648 646 647 0
-648 -646 0
-648 -647 0
649 506 642 0
-649 -506 0
-649 -642 0
650 -98 642 0
-650 98 0
-650 -642 0
651 -98 506 0
-651 98 0
-651 -506 0
652 651 650 0
-652 -651 0
-652 -650 0
653 649 -652 0
-653 -649 0
-653 652 0
654 98 506 0
-654 -98 0
-654 -506 0
655 -98 -506 0
-655 98 0
-655 506 0
656 655 654 0
-656 -655 0
-656 -654 0
657 642 -656 0
-657 -642 0
-657 656 0
658 -642 656 0
-658 642 0
-658 -656 0
659 658 657 0
-659 -658 0
-659 -657 0
660 -20 28 0
-660 20 0
-660 -28 0
661 -28 20 0
-661 28 0
-661 -20 0
662 661 660 0
-662 -661 0
-662 -660 0
663 -20 -28 0
-663 20 0
-663 28 0
664 -21 -516 0
-664 21 0
-664 516 0
665 21 516 0
-665 -21 0
-665 -516 0
666 664 665 0
-666 -664 0
-666 -665 0
667 -663 -666 0
-667 663 0
-667 666 0
668 663 666 0
-668 -663 0
-668 -666 0
669 667 668 0
-669 -667 0
-669 -668 0
670 -21 -663 0
-670 21 0
-670 663 0
671 -663 516 0
-671 663 0
-671 -516 0
672 -21 516 0
-672 21 0
-672 -516 0
673 672 671 0
-673 -672 0
-673 -671 0
674 670 -673 0
-674 -670 0
-674 673 0
675 -22 -527 0
-675 22 0
-675 527 0
676 22 527 0
-676 -22 0
-676 -527 0
677 675 676 0
-677 -675 0
-677 -676 0
678 674 -677 0
-678 -674 0
-678 677 0
679 -674 677 0
-679 674 0
-679 -677 0
680 679 678 0
-680 -679 0
-680 -678 0
681 -22 674 0
-681 22 0
-681 -674 0
682 674 527 0
-682 -674 0
-682 -527 0
683 -22 527 0
-683 22 0
-683 -527 0
684 682 683 0
-684 -682 0
-684 -683 0
685 681 -684 0
-685 -681 0
-685 684 0
686 -23 -538 0
-686 23 0
-686 538 0
687 23 538 0
-687 -23 0
-687 -538 0
688 687 686 0
-688 -687 0
-688 -686 0
689 -688 685 0
-689 688 0
-689 -685 0
690 688 -685 0
-690 -688 0
-690 685 0
691 690 689 0
-691 -690 0
-691 -689 0
692 -23 685 0
-692 23 0
-692 -685 0
693 685 538 0
-693 -685 0
-693 -538 0
694 -23 538 0
-694 23 0
-694 -538 0
695 693 694 0
-695 -693 0
-695 -694 0
696 -695 692 0
-696 695 0
-696 -692 0
697 -24 -549 0
-697 24 0
-697 549 0
698 24 549 0
-698 -24 0
-698 -549 0
699 698 697 0
-699 -698 0
-699 -697 0
700 -699 696 0
-700 699 0
-700 -696 0
701 699 -696 0
-701 -699 0
-701 696 0
702 700 701 0
-702 -700 0
-702 -701 0
703 -24 696 0
-703 24 0
-703 -696 0
704 549 696 0
-704 -549 0
-704 -696 0
705 -24 549 0
-705 24 0
-705 -549 0
706 704 705 0
-706 -704 0
-706 -705 0
707 -706 703 0
-707 706 0
-707 -703 0
708 -25 -560 0
-708 25 0
-708 560 0
709 25 560 0
-709 -25 0
-709 -560 0
710 709 708 0
-710 -709 0
-710 -708 0
711 -710 707 0
-711 710 0
-711 -707 0
712 710 -707 0
-712 -710 0
-712 707 0
713 711 712 0
-713 -711 0
-713 -712 0
714 -25 707 0
-714 25 0
-714 -707 0
715 560 707 0
-715 -560 0
-715 -707 0
716 -25 560 0
-716 25 0
-716 -560 0
717 716 715 0
-717 -716 0
-717 -715 0
718 -717 714 0
-718 717 0
-718 -714 0
719 -26 -571 0
-719 26 0
-719 571 0
720 26 571 0
-720 -26 0
-720 -571 0
721 720 719 0
-721 -720 0
-721 -719 0
722 -721 718 0
-722 721 0
-722 -718 0
723 721 -718 0
-723 -721 0
-723 718 0
724 723 722 0
-724 -723 0
-724 -722 0
725 -26 718 0
-725 26 0
-725 -718 0
726 571 718 0
-726 -571 0
-726 -718 0
727 -26 571 0
-727 26 0
-727 -571 0
728 726 727 0
-728 -726 0
-728 -727 0
729 -728 725 0
-729 728 0
-729 -725 0
730 -27 -582 0
-730 27 0
-730 582 0
731 27 582 0
-731 -27 0
-731 -582 0
732 730 731 0
-732 -730 0
-732 -731 0
733 -732 729 0
-733 732 0
-733 -729 0
734 732 -729 0
-734 -732 0
-734 729 0
735 733 734 0
-735 -733 0
-735 -734 0
736 -27 729 0
-736 27 0
-736 -729 0
737 729 582 0
-737 -729 0
-737 -582 0
738 -27 582 0
-738 27 0
-738 -582 0
739 737 738 0
-739 -737 0
-739 -738 0
740 736 -739 0
-740 -736 0
-740 739 0
741 -36 -593 0
-741 36 0
-741 593 0
742 36 593 0
-742 -36 0
-742 -593 0
743 742 741 0
-743 -742 0
-743 -741 0
744 740 -743 0
-744 -740 0
-744 743 0
745 -740 743 0
-745 740 0
-745 -743 0
746 744 745 0
-746 -744 0
-746 -745 0
747 -36 740 0
-747 36 0
-747 -740 0
748 740 593 0
-748 -740 0
-748 -593 0
749 -36 593 0
-749 36 0
-749 -593 0
750 749 748 0
-750 -749 0
-750 -748 0
751 747 -750 0
-751 -747 0
-751 750 0
752 -45 -604 0
-752 45 0
-752 604 0
753 45 604 0
-753 -45 0
-753 -604 0
754 753 752 0
-754 -753 0
-754 -752 0
755 751 -754 0
-755 -751 0
-755 754 0
756 -751 754 0
-756 751 0
-756 -754 0
757 755 756 0
-757 -755 0
-757 -756 0
758 -45 751 0
-758 45 0
-758 -751 0
759 751 604 0
-759 -751 0
-759 -604 0
760 -45 604 0
-760 45 0
-760 -604 0
761 759 760 0
-761 -759 0
-761 -760 0
762 758 -761 0
-762 -758 0
-762 761 0
763 -54 -615 0
-763 54 0
-763 615 0
764 54 615 0
-764 -54 0
-764 -615 0
765 763 764 0
-765 -763 0
-765 -764 0
766 762 -765 0
-766 -762 0
-766 765 0
767 -762 765 0
-767 762 0
-767 -765 0
768 767 766 0
-768 -767 0
-768 -766 0
769 -54 762 0
-769 54 0
-769 -762 0
770 762 615 0
-770 -762 0
-770 -615 0
771 -54 615 0
-771 54 0
-771 -615 0
772 770 771 0
-772 -770 0
-772 -771 0
773 -772 769 0
-773 772 0
-773 -769 0
774 -63 -626 0
-774 63 0
-774 626 0
775 63 626 0
-775 -63 0
-775 -626 0
776 774 775 0
-776 -774 0
-776 -775 0
777 -776 773 0
-777 776 0
-777 -773 0
778 776 -773 0
-778 -776 0
-778 773 0
779 777 778 0
-779 -777 0
-779 -778 0
780 -63 773 0
-780 63 0
-780 -773 0
781 626 773 0
-781 -626 0
-781 -773 0
782 -63 626 0
-782 63 0
-782 -626 0
783 781 782 0
-783 -781 0
-783 -782 0
784 -783 780 0
-784 783 0
-784 -780 0
785 -72 -637 0
-785 72 0
-785 637 0
786 72 637 0
-786 -72 0
-786 -637 0
787 785 786 0
-787 -785 0
-787 -786 0
788 784 -787 0
-788 -784 0
-788 787 0
789 -784 787 0
-789 784 0
-789 -787 0
790 788 789 0
-790 -788 0
-790 -789 0
791 -72 784 0
-791 72 0
-791 -784 0
792 784 637 0
-792 -784 0
-792 -637 0
793 -72 637 0
-793 72 0
-793 -637 0
794 793 792 0
-794 -793 0
-794 -792 0
795 791 -794 0
-795 -791 0
-795 794 0
796 -81 -648 0
-796 81 0
-796 648 0
797 81 648 0
-797 -81 0
-797 -648 0
798 796 797 0
-798 -796 0
-798 -797 0
799 -798 795 0
-799 798 0
-799 -795 0
800 798 -795 0
-800 -798 0
-800 795 0
801 800 799 0
-801 -800 0
-801 -799 0
802 -81 795 0
-802 81 0
-802 -795 0
803 795 648 0
-803 -795 0
-803 -648 0
804 -81 648 0
-804 81 0
-804 -648 0
805 803 804 0
-805 -803 0
-805 -804 0
806 -805 802 0
-806 805 0
-806 -802 0
807 -90 -659 0
-807 90 0
-807 659 0
808 90 659 0
-808 -90 0
-808 -659 0
809 807 808 0
-809 -807 0
-809 -808 0
810 -809 806 0
-810 809 0
-810 -806 0
811 809 -806 0
-811 -809 0
-811 806 0
812 810 811 0
-812 -810 0
-812 -811 0
813 -90 806 0
-813 90 0
-813 -806 0
814 659 806 0
-814 -659 0
-814 -806 0
815 -90 659 0
-815 90 0
-815 -659 0
816 815 814 0
-816 -815 0
-816 -814 0
817 813 -816 0
-817 -813 0
-817 816 0
818 -99 -653 0
-818 99 0
-818 653 0
819 99 653 0
-819 -99 0
-819 -653 0
820 818 819 0
-820 -818 0
-820 -819 0
821 -820 817 0
-821 820 0
-821 -817 0
822 820 -817 0
-822 -820 0
-822 817 0
823 821 822 0
-823 -821 0
-823 -822 0
824 -99 817 0
-824 99 0
-824 -817 0
825 817 653 0
-825 -817 0
-825 -653 0
826 -99 653 0
-826 99 0
-826 -653 0
827 826 825 0
-827 -826 0
-827 -825 0
828 824 -827 0
-828 -824 0
-828 827 0
-829 19 0
829 -19 0
-830 -662 0
830 662 0
-831 -669 0
831 669 0
-832 -680 0
832 680 0
-833 -691 0
833 691 0
-834 -702 0
834 702 0
-835 -713 0
835 713 0
-836 -724 0
836 724 0
-837 -735 0
837 735 0
-838 -746 0
838 746 0
-839 -757 0
839 757 0
-840 -768 0
840 768 0
-841 -779 0
841 779 0
-842 -790 0
842 790 0
-843 -801 0
843 801 0
-844 -812 0
844 812 0
-845 -823 0
845 823 0
-846 -828 0
846 828 0
-829 0
830 0
-831 0
832 0
-833 0
834 0
835 0
836 0
-837 0
838 0
839 0
-840 0
-841 0
842 0
-843 0
-844 0
845 0
846 0
